# Solution for model F-JSSP-SDST
# Objective value = 443
B0(12) 0
B1(16) 1
B2(12) 0
B3(16) 1
B4(16) 1
B5(13) 0
B6(11) 1
B7(11) 0
B8(12) 1
B9(17) 0
B10(18) 0
B11(11) 1
B12(12) 1
B13(14) 0
B14(16) 0
B15(11) 1
B16(15) 1
B17(11) 0
B18(0) 0
B19(0) 0
B20(0) 0
B21(2) 1
B22(4) 0
B23(2) 0
B24(4) 0
B25(2) 0
B26(2) 0
B27(0) 0
B28(0) 0
B29(0) 0
B30(2) 0
B31(4) 0
B32(2) 0
B33(4) 1
B34(2) 0
B35(2) 0
B36(0) 0
B37(0) 0
B38(0) 0
B39(2) 0
B40(2) 0
B41(4) 0
B42(2) 1
B43(4) 0
B44(4) 0
B45(0) 0
B46(0) 0
B47(0) 0
B48(0) 0
B49(0) 0
B50(0) 0
B51(2) 1
B52(2) 0
B53(2) 0
B54(0) 0
B55(0) 0
B56(0) 0
B57(0) 0
B58(0) 0
B59(0) 0
B60(4) 1
B61(2) 0
B62(2) 0
B63(0) 0
B64(0) 0
B65(0) 0
B66(0) 0
B67(0) 0
B68(0) 0
B69(2) 0
B70(4) 1
B71(4) 0
B72(0) 0
B73(0) 0
B74(0) 0
B75(0) 0
B76(0) 0
B77(0) 0
B78(0) 0
B79(0) 0
B80(0) 0
B81(0) 0
B82(0) 0
B83(0) 0
B84(0) 0
B85(0) 0
B86(0) 0
B87(0) 0
B88(0) 0
B89(0) 0
B90(0) 0
B91(0) 0
B92(0) 0
B93(0) 0
B94(0) 0
B95(0) 0
B96(0) 0
B97(0) 0
B98(0) 0
I99(12) 0
I100(16) 11
I101(14) 0
I102(18) 41
I103(18) 77
I104(16) 0
I105(11) 55
I106(11) 0
I107(13) 92
I108(19) 0
I109(20) 0
I110(14) 142
I111(13) 0
I112(15) 0
I113(18) 0
I114(14) 50
I115(19) 134
I116(15) 0
I117(1) 443
B118(0) 0
B119(0) 0
B120(0) 0
B121(0) 0
B122(3) 1
B123(3) 0
B124(0) 0
B125(0) 0
B126(0) 0
B127(0) 0
B128(3) 0
B129(3) 1
B130(0) 0
B131(0) 0
B132(0) 0
B133(0) 0
B134(3) 1
B135(3) 0
